
<<< setup


<<< generate

CPXPARAM_TimeLimit                               9999
Tried aggregator 2 times.
MIP Presolve eliminated 9 rows and 9 columns.
Aggregator did 10 substitutions.
Reduced MIP has 111 rows, 181 columns, and 614 nonzeros.
Reduced MIP has 90 binaries, 91 generals, 0 SOSs, and 0 indicators.
Presolve time = 0,00 sec. (0,60 ticks)
Found incumbent of value 75,954682 after 0,00 sec. (1,24 ticks)
Probing fixed 7 vars, tightened 0 bounds.
Probing time = 0,00 sec. (0,36 ticks)
Cover probing fixed 0 vars, tightened 63 bounds.
Tried aggregator 1 time.
MIP Presolve eliminated 10 rows and 16 columns.
MIP Presolve modified 112 coefficients.
Reduced MIP has 101 rows, 165 columns, and 565 nonzeros.
Reduced MIP has 83 binaries, 82 generals, 0 SOSs, and 0 indicators.
Presolve time = 0,00 sec. (0,67 ticks)
Probing time = 0,00 sec. (0,30 ticks)
Clique table members: 19.
MIP emphasis: balance optimality and feasibility.
MIP search method: dynamic search.
Parallel mode: deterministic, using up to 4 threads.
Root relaxation solution time = 0,00 sec. (0,85 ticks)

        Nodes                                         Cuts/
   Node  Left     Objective  IInf  Best Integer    Best Bound    ItCnt     Gap

*     0+    0                           75,9547        0,0000           100,00%
      0     0       19,5667    26       75,9547       19,5667      128   74,24%
      0     0       21,2548    31       75,9547      Cuts: 44      164   72,02%
      0     0       26,9398    33       75,9547      Cuts: 33      218   64,53%
      0     0       27,3630    45       75,9547      Cuts: 20      259   63,97%
      0     0       28,0279    47       75,9547      Cuts: 30      284   63,10%
      0     0       28,1509    50       75,9547      Cuts: 17      305   62,94%
      0     0       28,2359    51       75,9547       Cuts: 9      326   62,83%
      0     0       28,2582    50       75,9547      Cuts: 14      338   62,80%
      0     0       28,2931    54       75,9547      Cuts: 21      366   62,75%
      0     0       28,3731    53       75,9547       Cuts: 9      390   62,64%
      0     0       28,3924    56       75,9547      Cuts: 12      411   62,62%
      0     0       28,4047    56       75,9547      Cuts: 11      419   62,60%
      0     0       28,4176    58       75,9547      Cuts: 11      436   62,59%
      0     0       28,5593    53       75,9547      Cuts: 12      469   62,40%
      0     0       28,5596    57       75,9547      Cuts: 13      475   62,40%
*     0+    0                           49,0113       28,5596            41,73%
*     0+    0                           35,6464       28,5596            19,88%
      0     0        cutoff             35,6464       35,6464      475    0,00%
Elapsed time = 0,11 sec. (53,60 ticks, tree = 0,01 MB, solutions = 3)

Cover cuts applied:  2
Implied bound cuts applied:  15
Flow cuts applied:  20
Mixed integer rounding cuts applied:  7
Zero-half cuts applied:  6
Gomory fractional cuts applied:  2

Root node processing (before b&c):
  Real time             =    0,11 sec. (53,62 ticks)
Parallel b&c, 4 threads:
  Real time             =    0,00 sec. (0,00 ticks)
  Sync time (average)   =    0,00 sec.
  Wait time (average)   =    0,00 sec.
                          ------------
Total (root+branch&cut) =    0,11 sec. (53,62 ticks)

<<< solve


OBJECTIVE: 35.64641
12/18/2018 23:39:04 955
solving time ~= 113.367919922
Done
 [[0 0 3 0 0 0 0 0 0 0]
         [0 0 0 5 0 0 0 0 0 0]
         [0 0 0 0 2 0 0 0 0 0]
         [4 0 0 0 0 0 0 0 0 0]
         [0 0 0 0 0 1 0 0 0 0]
         [0 0 0 0 0 0 10 0 0 0]
         [0 0 0 0 0 0 0 9 0 0]
         [0 0 0 0 0 0 0 0 0 8]
         [0 6 0 0 0 0 0 0 0 0]
         [0 0 0 0 0 0 0 0 7 0]]

<<< post process


<<< done

